10
0 5 9 7 4 9 9 9 1 8
5 0 3 5 7 4 5 9 1 6
9 3 0 5 3 4 1 5 4 9
7 5 5 0 5 9 4 2 3 6
4 7 3 5 0 9 7 2 9 6
9 4 4 9 9 0 1 1 7 2
9 5 1 4 7 1 0 2 8 7
9 9 5 2 2 1 2 0 2 5
1 1 4 3 9 7 8 2 0 7
8 6 9 6 6 2 7 5 7 0